NAME: toy7
TYPE: TSP
COMMENT: https://link.springer.com/article/10.1007/s00453-009-9284-5; minimum cut {3 7 6}; cut-of-the-phase 9
DIMENSION: 7
EDGE_WEIGHT_TYPE: EXPLICIT
EDGE_WEIGHT_FORMAT: UPPER_ROW
EDGE_WEIGHT_SECTION
4 0  5 1 0 0
4 0 10 0 0
0 0 10 6
5 0  0
5 0
4
EOF